140
1000000
392068
145534
197345
251420
128620
64987
481403
490772
91707
216659
36385
487089
5668
173217
181005
330075
87413
316878
349529
142438
184562
288998
300660
115467
478291
249305
220363
27471
296318
265700
22772
58493
245835
317845
497540
94830
269292
117834
43332
269705
255
251790
42502
159731
131543
166577
354469
192021
244009
424879
98050
476638
419773
286252
496641
91878
190439
226512
239522
152264
376894
23387
148655
409458
450140
129535
172966
47301
293316
417371
140977
431534
75062
16931
124105
198182
362862
144549
146912
234304
163531
274312
166587
136602
443678
898
325230
229558
250005
360684
303424
477428
67694
263789
309421
4298
150115
124389
327159
60645
314386
293790
100196
353597
103464
473276
353339
10023
147269
315770
153
329154
24088
221990
143512
26715
174157
275112
12406
8838
204613
18989
181276
356379
56694
221143
132546
276097
178261
338197
237862
78719
256878
245439
319441
400568
63730
35576
100642
251257
